NAME lp_typeD_4369
OBJSENSE MAX
ROWS
 N  OBJ
 L  c0      
 L  c1      
 L  c2      
 L  c3      
 G  c4      
 G  c5      
 G  c6      
 G  c7      
 L  c_key_upper
 G  c_key_lower
 G  _chain_constr_1
 G  _chain_constr_2
 G  _chain_constr_3
 G  _chain_constr_4
 G  _chain_constr_5
 G  _chain_cycle
COLUMNS
    x0        OBJ       1.4158178874698786e+00
    x0        c0        1.9037672014579439e+00
    x0        c1        1.3316880253573151e+00
    x0        c2        1.0205693844395578e+00
    x0        c3        1.2583666246135063e+00
    x0        c4        0.559493363506151
    x0        c5        8.5636766056484059e-01
    x0        c6        5.8056175678946775e-01
    x0        c7        1.4883513522692278e+00
    x0        c_key_upper  1.8601984238491762e+00
    x0        c_key_lower  1.8601984238491762e+00
    x1        OBJ       1.1582028422546808e+00
    x1        c0        1.2519018156593458e+00
    x1        c1        1.7662934206542187e+00
    x1        c2        1.9251552731339723e+00
    x1        c3        1.7614735806921111e+00
    x1        c4        1.8209134482103544e+00
    x1        c5        1.4197970822429808e+00
    x1        c6        1.3655807201391268e+00
    x1        c7        9.1968988795199313e-01
    x1        c_key_upper  1.9023475028694001e+00
    x1        c_key_lower  1.9023475028694001e+00
    x2        OBJ       8.9850688234841147e-01
    x2        c0        1.5710215773957166e+00
    x2        c1        1.7540320488797441e+00
    x2        c2        1.2347373813917089e+00
    x2        c3        1.7742760142601055e+00
    x2        c4        1.9858063518863702e+00
    x2        c5        1.6145515912894801e+00
    x2        c6        1.7388169927752164e+00
    x2        c7        6.4616382944574235e-01
    x2        c_key_upper  1.6258117469862787e+00
    x2        c_key_lower  1.6258117469862787e+00
    x3        OBJ       0.509738902727258
    x3        c0        1.0267401490173711e+00
    x3        c1        1.6339097209924287e+00
    x3        c2        1.2110824144620598e+00
    x3        c3        1.0514349539639802e+00
    x3        c4        1.2087031395821612e+00
    x3        c5        0.916047916858675
    x3        c6        6.9139254675336126e-01
    x3        c7        1.3774495583941959e+00
    x3        c_key_upper  1.2948507362943440e+00
    x3        c_key_lower  1.2948507362943440e+00
    x4        OBJ       1.1067862380611846e+00
    x4        c0        1.8711448507698907e+00
    x4        c1        1.8333670268729956e+00
    x4        c2        1.2299131640849226e+00
    x4        c3        1.1210157559242244e+00
    x4        c4        1.7848571722622939e+00
    x4        c5        1.8315356946265235e+00
    x4        c6        0.517593542768801
    x4        c7        1.5685116469539595e+00
    x4        c_key_upper  1.7233779579961079e+00
    x4        c_key_lower  1.7233779579961079e+00
    _chain_var_0  _chain_constr_1  -1
    _chain_var_0  _chain_cycle  1
    _chain_var_1  _chain_constr_1  1
    _chain_var_1  _chain_constr_2  -1
    _chain_var_2  _chain_constr_2  1
    _chain_var_2  _chain_constr_3  -1
    _chain_var_3  _chain_constr_3  1
    _chain_var_3  _chain_constr_4  -1
    _chain_var_4  _chain_constr_4  1
    _chain_var_4  _chain_constr_5  -1
    _chain_var_5  _chain_constr_5  1
    _chain_var_5  _chain_cycle  -1
RHS
    RHS1      c0        4.1864948595063275e+01
    RHS1      c1        3.3719954608807377e+01
    RHS1      c2        3.3256449231287405e+01
    RHS1      c3        4.0351446021361681e+01
    RHS1      c4        8.0976635453594170e+00
    RHS1      c5        8.4023924332926772e+00
    RHS1      c6        5.4261024805212408e+00
    RHS1      c7        6.7259243873173116e+00
    RHS1      c_key_upper  4.2032931839976534e+01
    RHS1      c_key_lower  2.1016465919988267e+01
    RHS1      _chain_constr_1  10
    RHS1      _chain_constr_2  10
    RHS1      _chain_constr_3  10
    RHS1      _chain_constr_4  10
    RHS1      _chain_constr_5  10
    RHS1      _chain_cycle  10
BOUNDS
 UP BND1      x0        10
 UP BND1      x1        10
 UP BND1      x2        10
 UP BND1      x3        10
 UP BND1      x4        10
 UP BND1      _chain_var_0  100
 UP BND1      _chain_var_1  100
 UP BND1      _chain_var_2  100
 UP BND1      _chain_var_3  100
 UP BND1      _chain_var_4  100
 UP BND1      _chain_var_5  100
ENDATA
